nr_shelves = 50;
shelves = [20, 15, 10];

Product = P(1..5);

product_size =
[|       Length: Width: Height:
 | P(1):      4,     3,      3
 | P(2):      9,     8,      7
 | P(3):      8,    10,      4
 | P(4):     15,    15,      2
 | P(5):      9,     2,      2
 |];

nr_products = [20, 20, 20, 20, 20];
